Esercizi di altri/Modelli + Esami [Ricop]/Esercizi Modelli/PL Esercizi/11- Interpolazione/dat e mod separati/interpolazione.dat
data;

param nG := 12;
param nED := 8;

param consumo :=
 1		10
 2		20
 3		10
 4		15
 5		 5
 6		10
 7		10
 8		20
 9		12
10		25
11		 2
12		 5;

param tempo:	1	2	3	4	5	6	7	8 :=
1				0.2	0.4	0.5	0.6	0.6	0.5	0.2	0.2
2				0.1	1.0	0.1	1.2	1.1	1.0	0.6	0.3
3				0.1	0.5	0.5	0.7	0.5	0.5	0.1	0.2
4				0.2	0.6	0.6	0.8	0.6	0.6	0.2	0.3
5				0.1	0.4	0.2	0.3	0.2	0.2	0.0	0.2
6				0.2	0.5	0.4	0.7	0.5	0.4	0.2	0.3
7				0.3	0.4	0.5	0.8	0.4	0.4	0.2	0.2
8				0.6	0.8	1.0	1.5	1.3	0.6	0.5	0.6
9				0.3	0.4	0.5	0.7	0.5	0.5	0.3	0.2
10				0.5	0.9	1.1	1.3	0.9	1.2	0.8	0.5
11				0.0	0.2	0.0	0.0	0.1	0.0	0.0	0.1
12				0.0	0.5	0.2	0.3	0.2	0.1	0.1	0.3;

end;
