Esercizi di altri/Modelli + Esami [Ricop]/Esercizi Modelli/PL Esercizi/11- Interpolazione/dat e mod separati/interpolazione.out
Problem:    interpolazione
Rows:       37
Columns:    21
Non-zeros:  150
Status:     OPTIMAL
Objective:  z1 = 1.009209517 (MINimum)

   No.   Row name   St   Activity     Lower bound   Upper bound    Marginal
------ ------------ -- ------------- ------------- ------------- -------------
     1 Errore[1]    NS            10            10             =    -0.0982348 
     2 Errore[2]    NS            20            20             =     0.0038373 
     3 Errore[3]    NS            10            10             =     -0.231005 
     4 Errore[4]    NS            15            15             =      0.434382 
     5 Errore[5]    NS             5             5             =     -0.136608 
     6 Errore[6]    NS            10            10             =    -0.0353031 
     7 Errore[7]    NS            10            10             =         < eps
     8 Errore[8]    NS            20            20             =         < eps
     9 Errore[9]    NS            12            12             =         < eps
    10 Errore[10]   NS            25            25             =    -0.0475825 
    11 Errore[11]   NS             2             2             =         < eps
    12 Errore[12]   NS             5             5             =    -0.0130468 
    13 z1           B        1.00921                             
    14 minmax1posivito[1]
                    B        2.01842            -0               
    15 minmax1posivito[2]
                    NL             0            -0                   0.0038373 
    16 minmax1posivito[3]
                    B        2.01842            -0               
    17 minmax1posivito[4]
                    NL             0            -0                    0.434382 
    18 minmax1posivito[5]
                    B        2.01842            -0               
    19 minmax1posivito[6]
                    B        2.01842            -0               
    20 minmax1posivito[7]
                    B        1.08979            -0               
    21 minmax1posivito[8]
                    B        1.47352            -0               
    22 minmax1posivito[9]
                    B       0.219493            -0               
    23 minmax1posivito[10]
                    B        2.01842            -0               
    24 minmax1posivito[11]
                    B       0.349194            -0               
    25 minmax1posivito[12]
                    B        2.01842            -0               
    26 minmax1negativo[1]
                    NL             0            -0                   0.0982348 
    27 minmax1negativo[2]
                    B        2.01842            -0               
    28 minmax1negativo[3]
                    NL             0            -0                    0.231005 
    29 minmax1negativo[4]
                    B        2.01842            -0               
    30 minmax1negativo[5]
                    NL             0            -0                    0.136608 
    31 minmax1negativo[6]
                    NL             0            -0                   0.0353031 
    32 minmax1negativo[7]
                    B       0.928626            -0               
    33 minmax1negativo[8]
                    B       0.544896            -0               
    34 minmax1negativo[9]
                    B        1.79893            -0               
    35 minmax1negativo[10]
                    NL             0            -0                   0.0475825 
    36 minmax1negativo[11]
                    B        1.66922            -0               
    37 minmax1negativo[12]
                    NL             0            -0                   0.0130468 

   No. Column name  St   Activity     Lower bound   Upper bound    Marginal
------ ------------ -- ------------- ------------- ------------- -------------
     1 x[1]         B       0.821182             0               
     2 x[2]         NL             0             0                   0.0119724 
     3 x[3]         B        1.64236             0               
     4 x[4]         B        1.65004             0               
     5 x[5]         B       0.644666             0               
     6 x[6]         B        12.1182             0               
     7 x[7]         B        0.18419             0               
     8 x[8]         B        12.7552             0               
     9 err[1]       B       -1.00921                             
    10 err[2]       B        1.00921                             
    11 err[3]       B       -1.00921                             
    12 err[4]       B        1.00921                             
    13 err[5]       B       -1.00921                             
    14 err[6]       B       -1.00921                             
    15 err[7]       B     -0.0805833                             
    16 err[8]       B      -0.464313                             
    17 err[9]       B       0.789716                             
    18 err[10]      B       -1.00921                             
    19 err[11]      B       0.660015                             
    20 err[12]      B       -1.00921                             
    21 delta        B        1.00921                             

Karush-Kuhn-Tucker optimality conditions:

KKT.PE: max.abs.err = 3.55e-015 on row 10
        max.rel.err = 7.72e-017 on row 1
        High quality

KKT.PB: max.abs.err = 0.00e+000 on row 0
        max.rel.err = 0.00e+000 on row 0
        High quality

KKT.DE: max.abs.err = 5.55e-017 on column 4
        max.rel.err = 3.26e-017 on column 4
        High quality

KKT.DB: max.abs.err = 0.00e+000 on row 0
        max.rel.err = 0.00e+000 on row 0
        High quality

End of output
